        1743           4
        1680         216
        1532         104
        1477          38
        1313           4
        1285          60
        1232           4
        1217           8
        1180           6
        1177          10
        1105           8
        1055           2
        1046           4
        1032           8
        1030           8
         975           2
         893           8
         882         301
         847           6
         845          38
         830          30
         795           8
         766           4
         745           4
         732          34
         719          18
         714           4
         690           4
         665          90
         633          30
         630          30
         600         212
         590         108
         588         482
         582         196
         578           8
         540          32
         488           4
         455          52
         434          42
         420           8
         415           8
         414           8
         411          60
         405         136
         328           4
         313          68
         290         286
         275         502
         265         286
         255         292
         184          57
         155          24